c --- [ banner ] -------------------------------------------------------------
c 
c CaDiCaL SAT Solver
c Copyright (c) 2016-2025
c A. Biere, M. Fleury, N. Froleyks, K. Fazekas, F. Pollitt, T. Faller
c JKU Linz, University of Freiburg, TU Wien
c 
c Version 3.0.0 7b99c07f0bcab5824a5a3ce62c7066554017f641
c Apple clang version 21.0.0 (clang-2100.0.123.102) -Wall -Wextra -O3 -DNDEBUG -DNCLOSEFROM
c Thu Apr 23 22:35:47 PDT 2026 Darwin dada-mun-26.local 25.4.0 arm64
c 
c --- [ limit ] --------------------------------------------------------------
c 
c setting time limit to 300 seconds real time (due to '-t 300')
c 
c --- [ proof tracing ] ------------------------------------------------------
c 
c opening file to write 'scratch/atail-force/uniform-cycle-coverage-audit/n11_a1_cycle0.drat'
c writing binary proof trace to 'scratch/atail-force/uniform-cycle-coverage-audit/n11_a1_cycle0.drat'
c 
c --- [ parsing input ] ------------------------------------------------------
c 
c reading DIMACS file from 'scratch/atail-force/uniform-cycle-coverage-audit/n11_a1_cycle0.cnf'
c opening file to read 'scratch/atail-force/uniform-cycle-coverage-audit/n11_a1_cycle0.cnf'
c found 'p cnf 242 165183' header
c parsed 165183 clauses in 0.04 seconds process time
c 
c --- [ options ] ------------------------------------------------------------
c 
c all options are set to their default value
c 
c --- [ solving ] ------------------------------------------------------------
c 
c time measured in process time since initialization
c 
c  seconds  reduction conflicts       size tier2       variables
c         MB    restarts   redundant    glue  trail        remaining
c          level     rate       size/glu tier1  irredundant
c 
c *  0.04  0  0 0   0  0    0    0 0.0 0 0 2 6  0% 165141 200 83%
c (  0.05  0  0 0   0  0    0    0 0.0 0 0 2 6  0% 165141 200 83%
c .  0.05  0  0 0   0  0    0    0 0.0 0 0 2 6  0% 165141 200 83%
c f  0.07  0  0 0   0  0    0    0 0.0 0 0 2 6  0% 162900 364 150%
c e  0.07  0  0 0   0  0    0    0 0.0 0 0 2 6  0% 162606 224 93%
c P  0.08  0  0 0   0  0    0    0 0.0 0 0 2 6  0% 162606 224 93%
c )  0.08  0  0 0   0  0    0    0 0.0 0 0 2 6  0% 162606 224 93%
c {  0.08  0  0 0   0  0    0    0 0.0 0 0 2 6  0% 162606 224 93%
c -  0.08  0 90 1   5  2  303  102 1.2 17 13 2 6 60% 162606 224 93%
c -  0.10  0 46 2   9  1  833  225 1.3 17 13 2 6 49% 162606 224 93%
c }  0.10  0 42 2   9  1 1001  370 1.3 17 13 2 6 48% 162606 224 93%
c [  0.10  0  0 2   9  0 1001  370 0.0 0 0 2 6  0% 162606 224 93%
c O  0.10  0 17 2   9 18 1002  371 1.3 18 14 2 6 37% 162606 224 93%
c -  0.11  0 23 3   9  1 1706  373 1.3 18 15 2 6 44% 162606 224 93%
c ]  0.12  0 22 3  10  1 2717 1103 1.3 18 15 2 6 44% 162606 224 93%
c {  0.12  0 42 3  10  1 2717 1103 1.3 17 13 2 6 48% 162606 224 93%
c -  0.14  0 38 4  17  1 2960  515 1.3 17 13 2 6 57% 162606 224 93%
c O  0.14  0 38 4  17  1 3003  553 1.3 17 13 2 6 57% 162606 224 93%
c -  0.17  0 30 5  30  1 4607  774 1.3 18 13 2 6 61% 162606 224 93%
c #  0.19  0 28 5  34  1 6004 1929 1.4 17 13 9 16 60% 162606 224 93%
c 
c  seconds  reduction conflicts       size   tier2        variables
c         MB    restarts   redundant     glue    trail        remaining
c          level     rate       size/glue  tier1   irredundant
c 
c }  0.20  0 28 5  34  1 6365 2237 1.4 17 12 9 15 60% 162606 224 93%
c [  0.20  0 22 5  34  1 6365 2237 1.3 18 15 2 6 79% 162606 224 93%
c -  0.21  0 22 6  34  1 6662 2315 1.3 19 14 2 6 77% 162606 224 93%
c -  0.28  0 24 7  36  1 9132 3475 1.3 20 15 10 18 73% 162606 224 93%
c ]  0.29  0 24 7  36  1 9657 3892 1.3 20 16 10 18 73% 162606 224 93%
c {  0.29  0 28 7  36  1 9657 3892 1.4 17 12 9 15 60% 162606 224 93%
c B  0.30  0 28 7  58  1 10005 4196 1.4 17 12 9 15 61% 162606 224 93%
c -  0.35  0 27 8 117  1 12025 4737 1.4 17 12 9 15 62% 162606 224 93%
c f  0.39  0 27 8 148  1 13311 5857 1.4 17 12 9 15 59% 162584 240 99%
c W  0.45  0 27 8 196  1 15007 7352 1.4 17 12 9 15 60% 162584 240 99%
c -  0.47  0 27 9 209  1 15346 6405 1.4 17 12 9 15 60% 162584 240 99%
c }  0.48  0 27 9 219  1 15992 6986 1.4 17 12 9 15 60% 162584 240 99%
c [  0.48  0 24 9 219  1 15992 6986 1.3 20 16 10 18 68% 162584 240 99%
c -  0.57  0 26 10 221  1 19097 7555 1.3 21 16 10 18 66% 162584 240 99%
c s  0.58  0 26 10 221  1 19379 7789 1.3 21 16 10 18 66% 160511 240 99%
c e  0.59  0 26 10 221  1 19379 7789 1.3 21 16 10 18 66% 160510 230 95%
c s  0.59  0 26 10 221  1 19379 7789 1.3 21 16 10 18 66% 158876 230 95%
c I  0.63  0 26 10 222  1 21010 9078 1.3 21 16 10 18 65% 158876 230 95%
c -  0.67  0 28 11 222  1 23283 8911 1.4 21 15 10 18 64% 158876 230 95%
c ]  0.69  0 27 11 223  1 24227 9692 1.4 21 15 10 18 64% 158876 230 95%
c 
c  seconds  reductions  conflicts       size   tier2        variables
c         MB     restarts    redundant     glue    trail        remaining
c          level      rate        size/glue  tier1   irredundant
c 
c {  0.69  0 27 11 223  1 24227 9692 1.4 17 12 9 15 60% 158876 230 95%
c -  0.77  0 27 12 279  1 27865 10957 1.4 18 12 9 15 61% 158876 230 95%
c F  0.79  0 27 12 279  1 28011 11076 1.4 18 12 9 15 61% 158876 230 95%
c -  0.89  0 26 13 357  1 32877 13295 1.4 18 12 9 15 61% 158876 230 95%
c B  0.96  0 26 13 466  1 36013 16080 1.4 18 12 9 15 61% 158876 230 95%
c }  0.99  0 26 13 483  1 37299 17225 1.4 18 12 9 15 61% 158876 230 95%
c [  0.99  0 27 13 483  1 37299 17225 1.4 21 15 10 18 64% 158876 230 95%
c -  1.02  0 27 14 484  1 38326 15475 1.4 21 15 9 18 65% 158876 230 95%
c u  1.03  0 27 14 484  1 38326 15468 1.4 21 15 9 18 65% 158874 230 95%
c v  1.03  0 27 14 484  1 38326 15462 1.4 21 15 9 18 65% 158874 230 95%
c w  1.04  0 27 14 484  1 38326 15457 1.4 21 15 9 18 65% 158874 230 95%
c x  1.04  0 27 14 484  1 38326 15457 1.4 21 15 9 18 65% 158862 230 95%
c -  1.14  0 30 15 488  1 44204 16967 1.4 22 15 9 18 64% 158862 230 95%
c B  1.16  0 31 15 488  1 45015 17695 1.4 22 15 9 18 65% 158862 230 95%
c -  1.26  0 30 16 490  1 50516 17897 1.4 22 16 9 18 66% 158862 230 95%
c ]  1.28  0 30 16 490  1 50559 17931 1.4 22 16 9 18 66% 158862 230 95%
c {  1.28  0 26 16 490  1 50559 17931 1.4 18 12 9 15 61% 158862 230 95%
c W  1.44  0 26 16 639  2 55017 21777 1.5 18 12 9 15 61% 158862 230 95%
c s  1.51  0 26 16 706  2 57109 23647 1.5 18 12 9 15 61% 155282 230 95%
c s  1.52  0 26 16 706  2 57109 23647 1.5 18 12 9 15 61% 152734 230 95%
c 
c  seconds  reductions  conflicts        size   tier2        variables
c         MB     restarts     redundant     glue    trail        remaining
c          level      rate         size/glue  tier1   irredundant
c 
c -  1.54  0 26 17 709  2 57263 20704 1.5 18 12 9 15 61% 152734 230 95%
c -  1.68  0 26 18 861  2 64345 24184 1.5 18 12 9 15 61% 152734 230 95%
c #  1.71  0 26 18 897  2 66018 25643 1.5 18 12 9 15 61% 152734 230 95%
c }  1.79  0 26 18 1018  2 69544 28743 1.5 18 12 9 15 61% 152734 230 95%
c [  1.79  0 30 18 1018  1 69544 28743 1.4 22 16 9 18 66% 152734 230 95%
c -  1.83  0 30 19 1018  1 71857 26811 1.4 22 16 9 18 66% 152734 230 95%
c W  1.96  0 29 19 1019  1 78019 31989 1.4 22 16 9 18 65% 152734 230 95%
c -  2.00  0 29 20 1021  1 79790 28024 1.4 22 16 9 18 65% 152734 230 95%
c v  2.02  0 29 20 1021  1 79790 28010 1.4 22 16 9 18 65% 152734 230 95%
c x  2.03  0 29 20 1021  1 79790 28009 1.4 22 16 9 18 65% 152733 230 95%
c -  2.20  0 28 21 1025  1 88149 28532 1.4 23 16 9 18 65% 152733 230 95%
c O  2.28  0 28 21 1027  1 91020 31011 1.4 23 17 9 18 65% 152733 230 95%
c ]  2.28  0 28 21 1027  1 91085 31069 1.4 23 17 9 18 66% 152733 230 95%
c {  2.28  0 26 21 1027  2 91085 31069 1.5 18 12 9 15 61% 152733 230 95%
c -  2.45  0 26 22 1201  2 96936 31563 1.5 18 12 9 15 61% 152733 230 95%
c B  2.64  0 26 22 1499  2 105022 38636 1.5 18 12 9 15 61% 152733 230 95%
c -  2.68  0 26 23 1552  2 106150 35785 1.5 18 12 9 15 61% 152733 230 95%
c s  2.87  0 26 23 1788  2 113363 42096 1.5 18 12 9 15 61% 149893 230 95%
c s  2.89  0 26 23 1788  2 113363 42096 1.5 18 12 9 15 61% 149883 230 95%
c }  2.94  0 25 23 1845  2 114743 43308 1.5 18 12 9 15 61% 149883 230 95%
c 
c  seconds  reductions   conflicts         size   tier2        variables
c         MB     restarts       redundant     glue    trail        remaining
c          level       rate          size/glue  tier1   irredundant
c 
c [  2.94  0 28 23 1845  1 114743 43308 1.4 23 17 9 18 66% 149883 230 95%
c -  2.97  0 28 24 1846  1 115793 39788 1.4 23 16 9 18 65% 149883 230 95%
c u  2.98  0 28 24 1846  1 115793 39781 1.4 23 16 9 18 65% 149883 230 95%
c v  2.99  0 28 24 1846  1 115793 39766 1.4 23 16 9 18 65% 149883 230 95%
c w  2.99  0 28 24 1846  1 115793 39759 1.4 23 16 9 18 65% 149883 230 95%
c B  3.07  0 29 24 1849  1 120023 43478 1.4 23 16 9 18 65% 149883 230 95%
c -  3.20  0 29 25 1850  1 125795 42071 1.4 23 16 9 18 66% 149883 230 95%
c W  3.48  0 28 25 1852  1 136027 50844 1.4 23 16 9 18 66% 149883 230 95%
c -  3.50  0 28 26 1852  1 136219 43264 1.4 23 16 8 16 66% 149883 230 95%
c ]  3.62  0 28 26 1852  1 141436 47563 1.4 23 16 8 16 66% 149883 230 95%
c {  3.62  0 25 26 1852  2 141436 47563 1.5 18 12 9 15 61% 149883 230 95%
c -  3.77  0 25 27 2006  2 147070 46449 1.5 18 12 9 15 60% 149883 230 95%
c W  3.99  0 25 27 2217  2 153029 51712 1.5 18 12 9 15 60% 149883 230 95%
c -  4.19  0 25 28 2422  2 158341 51005 1.5 18 12 9 15 60% 149883 230 95%
c u  4.21  0 25 28 2422  2 158341 51003 1.5 18 12 9 15 60% 149883 230 95%
c v  4.21  0 25 28 2422  2 158341 50993 1.5 18 12 9 15 60% 149883 230 95%
c w  4.22  0 25 28 2422  2 158341 50988 1.5 18 12 9 15 60% 149883 230 95%
c x  4.22  0 25 28 2422  2 158341 50988 1.5 18 12 9 15 60% 149881 230 95%
c -  4.56  0 25 29 2803  2 170038 55823 1.5 18 12 9 15 61% 149881 230 95%
c }  4.57  0 25 29 2804  2 170215 55981 1.5 18 12 9 15 61% 149881 230 95%
c 
c  seconds  reductions   conflicts         size   tier2        variables
c         MB     restarts       redundant     glue    trail        remaining
c          level       rate          size/glue  tier1   irredundant
c 
c [  4.57  0 28 29 2804  1 170215 55981 1.4 23 16 8 16 66% 149881 230 95%
c I  4.58  0 27 29 2804  1 171031 56719 1.4 23 16 8 16 66% 149881 230 95%
c -  4.81  0 29 30 2807  1 182159 58490 1.4 23 16 8 16 65% 149881 230 95%
c s  4.95  0 30 30 2810  1 188147 63728 1.4 23 16 8 16 65% 149880 230 95%
c ^  4.96  0 30 30 2810  1 188147 63728 1.4 23 16 8 16 65% 149880 230 95%
c B  5.01  0 30 30 2811  1 190032 65401 1.4 23 16 8 16 65% 149880 230 95%
c -  5.11  0 30 31 2814  1 194704 60740 1.4 23 16 8 16 65% 149880 230 95%
c u  5.14  0 30 31 2814  1 194704 60731 1.4 23 16 8 16 65% 149880 230 95%
c v  5.14  0 30 31 2814  1 194704 60717 1.4 23 16 8 16 65% 149880 230 95%
c w  5.15  0 30 31 2814  1 194704 60711 1.4 23 16 8 16 65% 149880 230 95%
c ]  5.34  0 29 31 2818  1 203997 68191 1.4 23 17 8 17 66% 149880 230 95%
c {  5.34  0 25 31 2818  2 203997 68191 1.5 18 12 9 15 61% 149880 230 95%
c -  5.45  0 25 32 2942  2 207677 63289 1.5 18 12 9 15 61% 149880 230 95%
c F  5.54  0 25 32 3079  2 210033 65405 1.5 18 12 9 15 61% 149880 230 95%
c -  5.86  0 25 33 3432  2 221073 68627 1.5 18 12 9 15 61% 149880 230 95%
c B  6.23  0 25 33 3959  2 231034 77543 1.5 18 12 9 15 60% 149880 230 95%
c -  6.40  0 25 34 4157  2 234893 74580 1.5 18 12 9 15 60% 149880 230 95%
c u  6.49  0 25 34 4157  2 234893 74573 1.5 18 12 9 15 60% 149880 230 95%
c v  6.49  0 25 34 4157  2 234893 74559 1.5 18 12 9 15 60% 149880 230 95%
c w  6.50  0 25 34 4157  2 234893 74557 1.5 18 12 9 15 60% 149880 230 95%
c 
c  seconds  reductions   conflicts         size   tier2        variables
c         MB     restarts       redundant     glue    trail        remaining
c          level       rate          size/glue  tier1   irredundant
c 
c }  6.53  0 25 34 4222  2 235505 75100 1.5 18 12 9 15 60% 149880 230 95%
c [  6.53  0 29 34 4222  1 235505 75100 1.4 23 17 8 17 66% 149880 230 95%
c -  6.83  0 28 35 4226  1 249138 76650 1.4 23 16 8 17 65% 149880 230 95%
c W  7.06  0 28 35 4229  1 253036 79899 1.4 23 16 8 17 65% 149880 230 95%
c -  7.32  0 28 36 4235  1 263811 77432 1.4 23 17 8 17 66% 149880 230 95%
c O  7.59  0 27 36 4238  1 276039 87659 1.4 23 17 8 17 66% 149880 230 95%
c ]  7.63  0 27 36 4238  1 277698 88926 1.4 23 17 8 17 66% 149880 230 95%
c {  7.63  0 25 36 4238  2 277698 88926 1.5 18 12 9 15 60% 149880 230 95%
c -  7.69  0 25 37 4294  2 278908 79230 1.5 18 12 9 15 60% 149880 230 95%
c u  7.71  0 25 37 4294  2 278908 79223 1.5 18 12 9 15 60% 149880 230 95%
c v  7.71  0 25 37 4294  2 278908 79202 1.5 18 12 9 15 60% 149880 230 95%
c w  7.71  0 25 37 4294  2 278908 79200 1.5 18 12 9 15 60% 149880 230 95%
c x  7.72  0 25 37 4294  2 278908 79200 1.5 18 12 9 15 60% 149878 230 95%
c s  7.87  0 25 37 4434  2 281629 81612 1.5 18 12 9 15 60% 149862 230 95%
c e  7.88  0 25 37 4434  2 281629 81612 1.5 18 12 9 15 60% 149878 214 88%
c ^  7.89  0 25 37 4434  2 281629 81612 1.5 18 12 9 15 60% 149878 214 88%
c -  8.47  0 25 38 5258  2 294431 85474 1.5 18 12 9 15 60% 149878 214 88%
c f  8.48  0 25 38 5258  2 294431 85474 1.5 18 12 9 15 59% 149871 216 89%
c W  8.77  0 25 38 5493  2 300040 90423 1.5 18 12 9 15 59% 149871 216 89%
c -  9.18  0 25 39 5965  2 310382 91728 1.5 18 12 9 15 59% 149871 216 89%
c 
c  seconds  reductions   conflicts         size   tier2        variables
c         MB     restarts       redundant     glue    trail        remaining
c          level       rate          size/glue  tier1   irredundant
c 
c u  9.21  0 25 39 5965  2 310382 91716 1.5 18 12 9 15 59% 149871 216 89%
c v  9.22  0 25 39 5965  2 310382 91696 1.5 18 12 9 15 59% 149871 216 89%
c }  9.23  0 25 39 5968  2 310434 91738 1.5 18 12 9 15 59% 149871 216 89%
c [  9.23  0 27 39 5968  1 310434 91738 1.4 23 17 8 17 65% 149871 216 89%
c B  9.60  0 27 39 5969  1 325041 103708 1.4 23 17 8 17 64% 149871 216 89%
c -  9.66  0 27 40 5969  1 326757 93404 1.4 23 17 8 17 64% 149871 216 89%
c - 10.05  0 27 41 5970  1 343560 94628 1.4 23 17 8 16 63% 149871 216 89%
c W 10.30  0 27 41 5970  1 351044 100750 1.4 23 17 8 16 63% 149871 216 89%
c ] 10.49  0 28 41 5970  1 359390 107987 1.4 23 17 8 16 63% 149871 216 89%
c { 10.49  0 25 41 5970  2 359390 107987 1.5 18 12 9 15 59% 149871 216 89%
c - 10.57  0 25 42 6034  2 360787 96974 1.5 18 12 9 15 59% 149871 216 89%
c u 10.66  0 25 42 6034  2 360787 96964 1.5 18 12 9 15 59% 149871 216 89%
c v 10.67  0 25 42 6034  2 360787 96950 1.5 18 12 9 15 59% 149871 216 89%
c w 10.67  0 25 42 6034  2 360787 96950 1.5 18 12 9 15 59% 149871 216 89%
c # 11.49  0 25 42 6972  2 378046 112445 1.5 18 12 9 15 58% 149871 216 89%
c - 11.52  0 25 43 6981  2 378441 102787 1.5 18 12 9 15 58% 149871 216 89%
c e 12.32  0 25 43 7862  2 395053 117713 1.5 18 12 9 15 58% 149885 208 86%
c ^ 12.34  0 25 43 7862  2 395053 117713 1.5 18 12 9 15 58% 149885 208 86%
c } 12.37  0 25 43 7868  2 396327 118851 1.5 18 12 9 15 58% 149885 208 86%
c [ 12.37  0 28 43 7868  1 396327 118851 1.4 23 17 8 16 63% 149885 208 86%
c 
c  seconds  reductions   conflicts          size   tier2        variables
c         MB     restarts       redundant      glue    trail        remaining
c          level       rate           size/glue  tier1   irredundant
c 
c - 12.39  0 28 44 7868  1 396524 109374 1.4 23 17 8 16 63% 149885 208 86%
c u 12.43  0 28 44 7868  1 396524 109366 1.4 23 17 8 16 63% 149885 208 86%
c v 12.44  0 28 44 7868  1 396524 109344 1.4 23 17 8 16 63% 149885 208 86%
c w 12.45  0 28 44 7868  1 396524 109336 1.4 23 17 8 16 63% 149885 208 86%
c f 12.45  0 28 44 7868  1 396524 109336 1.4 23 17 8 16 62% 149880 209 86%
c I 12.69  0 28 44 7874  1 406047 117306 1.4 23 17 8 16 62% 149880 209 86%
c - 12.91  0 28 45 7878  1 415034 111724 1.4 23 17 8 16 62% 149880 209 86%
c - 13.37  0 29 46 7885  1 433970 112582 1.4 24 17 8 16 61% 149880 209 86%
c B 13.40  0 29 46 7886  1 435051 113530 1.4 24 17 8 16 60% 149880 209 86%
c - 13.88  0 29 47 7896  1 453333 113085 1.4 24 17 8 16 60% 149880 209 86%
c u 13.91  0 29 47 7896  1 453333 113080 1.4 24 17 8 16 60% 149880 209 86%
c v 13.92  0 29 47 7896  1 453333 113064 1.4 24 17 8 16 60% 149880 209 86%
c w 13.92  0 29 47 7896  1 453333 113060 1.4 24 17 8 16 60% 149880 209 86%
c x 13.93  0 29 47 7896  1 453333 113060 1.4 24 17 8 16 60% 149878 209 86%
c ] 13.97  0 29 47 7897  1 454164 113740 1.4 24 17 8 16 60% 149878 209 86%
c { 13.97  0 25 47 7897  2 454164 113740 1.5 18 12 9 15 57% 149878 209 86%
c B 14.53  0 25 47 8440  2 465052 123538 1.5 18 12 6 13 57% 149878 209 86%
c - 14.90  0 25 48 8760  2 473125 77327 1.5 18 12 6 13 57% 149878 209 86%
c - 15.70  0 25 49 9668  2 493347 73821 1.5 18 12 6 13 56% 149878 209 86%
c u 15.73  0 25 49 9668  2 493347 73815 1.5 18 12 6 13 56% 149878 209 86%
c 
c  seconds  reductions   conflicts         size   tier2        variables
c         MB     restarts       redundant     glue    trail        remaining
c          level       rate          size/glue  tier1   irredundant
c 
c v 15.75  0 25 49 9668  2 493347 73802 1.5 18 12 6 13 56% 149878 209 86%
c w 15.75  0 25 49 9668  2 493347 73781 1.5 18 12 6 13 56% 149878 209 86%
c W 16.11  0 25 49 9798  2 496055 76164 1.5 18 12 6 13 56% 149878 209 86%
c } 16.34  0 25 49 10021  2 502735 81993 1.5 18 12 6 13 56% 149878 209 86%
c [ 16.34  0 29 49 10021  1 502735 81993 1.4 24 17 8 16 60% 149878 209 86%
c - 16.57  0 28 50 10022  1 513991 74771 1.4 24 17 8 16 60% 149878 209 86%
c s 16.93  0 28 50 10023  1 527956 85944 1.4 24 17 8 16 59% 149731 209 86%
c e 16.95  0 28 50 10023  1 527956 85942 1.4 24 17 8 16 59% 149819 183 76%
c s 16.97  0 28 50 10023  1 527956 85942 1.4 24 17 8 16 59% 149688 183 76%
c W 17.03  0 28 50 10023  1 528056 86022 1.4 24 17 8 16 59% 149688 183 76%
c - 17.24  0 28 51 10026  1 535066 71578 1.4 24 17 7 16 59% 149688 183 76%
c u 17.28  0 28 51 10026  1 535066 71572 1.4 24 17 7 16 59% 149688 183 76%
c v 17.29  0 28 51 10026  1 535066 71556 1.4 24 17 7 16 59% 149688 183 76%
c w 17.29  0 28 51 10026  1 535066 71553 1.4 24 17 7 16 59% 149688 183 76%
c f 17.30  0 28 51 10026  1 535066 71553 1.4 24 17 7 16 57% 149653 190 79%
c - 17.87  0 27 52 10038  1 556556 66091 1.4 24 17 7 16 56% 149653 190 79%
c O 17.98  0 27 52 10038  1 561058 69555 1.4 24 17 7 16 56% 149653 190 79%
c ] 18.29  0 27 52 10045  1 573952 79355 1.4 24 17 7 16 56% 149653 190 79%
c { 18.29  0 25 52 10045  2 573952 79355 1.5 18 12 6 13 54% 149653 190 79%
c - 18.47  0 25 53 10203  2 578471 67636 1.5 18 12 6 13 54% 149653 190 79%
c 
c  seconds  reductions    conflicts         size   tier2        variables
c         MB      restarts       redundant     glue    trail        remaining
c          level        rate          size/glue  tier1   irredundant
c 
c u 18.50  0 25 53 10203  2 578471 67631 1.5 18 12 6 13 54% 149653 190 79%
c v 18.51  0 25 53 10203  2 578471 67617 1.5 18 12 6 13 54% 149653 190 79%
c w 18.51  0 25 53 10203  2 578471 67610 1.5 18 12 6 13 54% 149653 190 79%
c F 19.07  0 25 53 10888  2 595059 82337 1.5 18 12 6 13 53% 149653 190 79%
c - 19.28  0 25 54 11097  2 600814 75710 1.5 18 12 6 13 52% 149653 190 79%
c - 20.04  0 24 55 11925  2 623584 82152 1.5 19 12 6 13 52% 149653 190 79%
c u 20.07  0 24 55 11925  2 623584 82141 1.5 19 12 6 13 52% 149653 190 79%
c v 20.08  0 24 55 11925  2 623584 82118 1.5 19 12 6 13 52% 149653 190 79%
c w 20.08  0 24 55 11925  2 623584 82110 1.5 19 12 6 13 52% 149653 190 79%
c B 20.35  0 24 55 12237  2 630061 87843 1.5 19 12 6 13 51% 149653 190 79%
c } 20.68  0 24 55 12708  2 636965 94006 1.5 19 12 6 13 51% 149653 190 79%
c [ 20.68  0 27 55 12708  1 636965 94006 1.4 24 17 7 16 56% 149653 190 79%
c - 20.87  0 27 56 12713  1 646782 85318 1.4 24 17 7 16 55% 149653 190 79%
c B 21.24  0 26 56 12717  1 666062 101465 1.4 24 17 7 16 55% 149653 190 79%
c - 21.36  0 26 57 12717  1 670408 83137 1.4 24 17 7 16 54% 149653 190 79%
c u 21.39  0 26 57 12717  1 670408 83130 1.4 24 17 7 16 54% 149653 190 79%
c v 21.40  0 26 57 12717  1 670408 83111 1.4 24 17 7 16 54% 149653 190 79%
c w 21.40  0 26 57 12717  1 670408 83101 1.4 24 17 7 16 54% 149653 190 79%
c s 21.73  0 26 57 12718  1 682771 93188 1.4 23 17 7 16 54% 149632 190 79%
c e 21.74  0 26 57 12718  1 682771 93188 1.4 23 17 7 16 54% 149631 189 78%
c 
c  seconds  reductions    conflicts         size   tier2        variables
c         MB      restarts       redundant     glue    trail        remaining
c          level        rate          size/glue  tier1   irredundant
c 
c s 21.77  0 26 57 12718  1 682771 93188 1.4 23 17 7 16 54% 149629 189 78%
c - 22.11  0 25 58 12718  1 694464 79523 1.4 23 17 7 16 54% 149629 189 78%
c f 22.12  0 25 58 12718  1 694464 79523 1.4 23 17 7 16 53% 149624 190 79%
c W 22.57  0 25 58 12718  1 703063 86257 1.4 23 17 7 16 53% 149624 190 79%
c - 22.95  0 27 59 12719  1 718943 80374 1.4 24 17 7 16 53% 149624 190 79%
c u 22.97  0 27 59 12719  1 718943 80359 1.4 24 17 7 16 53% 149624 190 79%
c v 22.98  0 27 59 12719  1 718943 80340 1.4 24 17 7 16 53% 149624 190 79%
c w 22.99  0 27 59 12719  1 718943 80335 1.4 24 17 7 16 53% 149624 190 79%
c ] 23.19  0 28 59 12719  1 727779 88004 1.4 24 17 7 16 53% 149624 190 79%
c { 23.19  0 24 59 12719  2 727779 88004 1.5 19 12 6 13 51% 149624 190 79%
c W 23.81  0 24 59 13392  2 741065 99852 1.5 19 12 6 13 50% 149624 190 79%
c - 23.92  0 24 60 13461  2 743850 84676 1.5 19 12 6 13 50% 149624 190 79%
c - 24.90  0 24 61 14499  2 769184 90984 1.5 19 12 6 13 50% 149624 190 79%
c u 25.04  0 24 61 14499  2 769184 90959 1.5 19 12 6 13 50% 149624 190 79%
c v 25.05  0 24 61 14499  2 769184 90929 1.5 19 12 6 13 50% 149624 190 79%
c w 25.06  0 24 61 14499  2 769184 90918 1.5 19 12 6 13 50% 149624 190 79%
c # 25.42  0 24 61 14799  2 780067 100233 1.5 19 12 6 13 49% 149624 190 79%
c - 26.03  0 24 62 15379  2 794945 84757 1.5 19 12 5 13 49% 149624 190 79%
c } 26.24  0 24 62 15594  2 799998 89213 1.5 19 12 5 13 49% 149624 190 79%
c [ 26.24  0 28 62 15594  1 799998 89213 1.4 24 17 7 16 53% 149624 190 79%
c 
c  seconds  reductions    conflicts          size   tier2        variables
c         MB      restarts       redundant      glue    trail        remaining
c          level        rate           size/glue  tier1   irredundant
c 
c I 26.69  0 27 62 15594  1 820072 105726 1.4 24 17 7 16 53% 149624 190 79%
c - 26.73  0 27 63 15594  1 821137 81300 1.4 24 17 7 16 53% 149624 190 79%
c u 26.77  0 27 63 15594  1 821137 81285 1.4 24 17 7 16 53% 149624 190 79%
c v 26.78  0 27 63 15594  1 821137 81260 1.4 24 17 7 16 53% 149624 190 79%
c w 26.78  0 27 63 15594  1 821137 81247 1.4 24 17 7 16 53% 149624 190 79%
c - 27.37  0 29 64 15594  1 847755 78276 1.4 24 17 7 16 52% 149624 190 79%
c s 27.59  0 30 64 15598  1 856090 85584 1.4 24 17 7 16 52% 149611 190 79%
c e 27.60  0 30 64 15598  1 856090 85584 1.4 24 17 7 16 52% 149618 188 78%
c s 27.63  0 30 64 15598  1 856090 85584 1.4 24 17 7 16 52% 149616 188 78%
c B 27.77  0 30 64 15601  1 861075 89832 1.4 24 17 7 15 52% 149616 188 78%
c - 28.09  0 29 65 15608  1 874802 76728 1.4 24 17 7 15 53% 149616 188 78%
c u 28.12  0 29 65 15608  1 874802 76717 1.4 24 17 7 15 53% 149616 188 78%
c v 28.13  0 29 65 15608  1 874802 76694 1.4 24 17 7 15 53% 149616 188 78%
c w 28.14  0 29 65 15608  1 874802 76682 1.4 24 17 7 15 53% 149616 188 78%
c ] 28.19  0 29 65 15608  1 876507 78093 1.4 24 17 7 15 53% 149616 188 78%
c 1 28.19  0 29 65 15608  1 876507 78093 1.4 24 17 7 15 53% 149616 188 78%
c 
c --- [ closing proof ] ------------------------------------------------------
c 
c DRAT proof file 'scratch/atail-force/uniform-cycle-coverage-audit/n11_a1_cycle0.drat' closed
c DRAT 873308 added clauses 51.86%
c DRAT 810740 deleted clauses 48.14%
c DRAT 52690828 bytes (50.25 MB)
c 
c --- [ result ] -------------------------------------------------------------
c 
s SATISFIABLE
v -1 2 -3 -4 -5 -6 7 -8 -9 10 11 -12 -13 14 -15 -16 17 -18 -19 20 -21 22 -23
v -24 -25 26 27 -28 -29 -30 31 32 -33 34 35 -36 -37 -38 -39 40 41 -42 -43 -44
v -45 46 -47 48 -49 50 -51 -52 -53 54 -55 -56 -57 58 59 -60 -61 62 -63 64 -65
v -66 -67 -68 69 -70 71 -72 -73 74 -75 76 -77 -78 79 -80 -81 82 83 -84 -85 86
v -87 -88 89 -90 91 -92 -93 -94 95 -96 -97 -98 99 -100 101 -102 -103 -104 -105
v -106 107 108 -109 110 111 -112 -113 114 -115 116 -117 118 -119 -120 -121
v -122 -123 -124 -125 -126 -127 -128 -129 -130 -131 132 -133 -134 -135 -136
v -137 -138 -139 -140 -141 142 -143 -144 -145 -146 -147 -148 149 -150 -151
v -152 -153 -154 -155 -156 -157 -158 159 -160 -161 -162 -163 -164 -165 -166
v -167 -168 -169 -170 -171 -172 173 -174 -175 -176 -177 -178 -179 -180 -181
v -182 -183 184 -185 -186 -187 -188 -189 -190 191 -192 -193 -194 -195 -196
v -197 -198 -199 -200 -201 202 -203 -204 -205 -206 -207 -208 -209 -210 -211
v -212 -213 -214 215 -216 -217 -218 -219 -220 -221 -222 -223 -224 -225 -226
v 227 -228 -229 -230 -231 -232 -233 -234 -235 -236 -237 -238 -239 -240 241
v -242 0
c 
c --- [ run-time profiling ] -------------------------------------------------
c 
c process time taken by individual solving procedures
c (percentage relative to process time for solving)
c 
c        26.32   93.50% search
c        13.83   49.14% unstable
c        11.41   40.54% stable
c         1.83    6.49% simplify
c         1.07    3.81% walk
c         0.77    2.75% vivify
c         0.34    1.21% sweep
c         0.28    1.01% subsume
c         0.10    0.37% elim
c         0.07    0.26% probe
c         0.04    0.16% parse
c         0.04    0.14% factor
c         0.04    0.13% congruence
c         0.03    0.10% preprocess
c         0.02    0.07% ternary
c         0.01    0.02% fastelim
c         0.00    0.01% lucky
c         0.00    0.00% backbone
c   =================================
c        28.15   99.84% solve
c 
c last line shows process time for solving
c (percentage relative to total process time)
c 
c --- [ statistics ] ---------------------------------------------------------
c 
c chronological:             90413        10.32 %  of conflicts
c conflicts:                876507     31141.82    per second
c backbone:                  64671     14935.57 %  of vars
c decisions:               1225541     43542.80    per second
c eliminated:                  203        46.88 %  of all variables
c factored:                    191        75.79 %  of variables
c fixed:                        42         9.70 %  of all variables
c learned:                  851455        97.14 %  per conflict
c learned_lits:           21241530       100.00 %  learned literals
c minimized:                     0         0.00 %  learned literals
c shrunken:                1909050         8.99 %  learned literals
c minishrunken:            1090051         5.13 %  learned literals
c otfs:                      17520         2.00 %  of conflict
c propagations:           13336838         0.47 M  per second
c reduced:                  668943        76.32 %  per conflict
c rephased:                     41     21378.22    interval
c restarts:                  15608        56.16    interval
c stabilizing:                  13        56.00 %  of conflicts
c subsumed:                 117102        11.47 %  of all clauses
c strengthened:              17831         1.75 %  of all clauses
c ticks:                2721315143       206.30    propagation
c vivified:                    404         0.04 %  of all clauses
c walked:                       12     73042.25    interval
c weakened:                    983         4.16    average size
c congruence:                   10     87650.70    interval
c 
c seconds are measured in process time for solving
c 
c --- [ glue usage ] ---------------------------------------------------------
c 
c focused glue 5 used 57929 clauses 5.975% accumulated 50.96% tier1
c focused glue 6 used 50974 clauses 5.258% accumulated 56.22%
c focused glue 7-11 used 224505 clauses 23.15% accumulated 79.38%
c focused glue 12 used 34674 clauses 3.576% accumulated 82.96%
c focused glue 13 used 31089 clauses 3.207% accumulated 86.16% tier2
c 
c stable glue 7 used 132730 clauses 6.339% accumulated 51.86% tier1
c stable glue 8 used 123725 clauses 5.909% accumulated 57.77%
c stable glue 9-14 used 493821 clauses 23.58% accumulated 81.36%
c stable glue 15 used 46838 clauses 2.237% accumulated 83.60%
c stable glue 16 used 42728 clauses 2.040% accumulated 85.64% tier2
c 
c 
c --- [ resources ] ----------------------------------------------------------
c 
c total process time since initialization:        28.19    seconds
c total real time since initialization:           28.20    seconds
c maximum resident set size of process:       710464.00    MB
c 
c --- [ shutting down ] ------------------------------------------------------
c 
c exit 10
